proyfinal/src/viki/013/experimentInOfficeAgust.take6.output/eabaf6c9-f9bc-4a7f-abbf-1ed5d0946848.als.dat
{'cnf.clauses': '118081',
 'cnf.totvars': '69608',
 'conflict literals': '1',
 'conflicts': '2',
 'decisions': '654',
 'memused.mb': '16.69',
 'outcome': 'UNSAT',
 'propagations': '20514',
 'restarts': '1',
 'solver.msecs': 35,
 'task.msecs': 85}
