proyfinal/src/viki/013/experimentInOfficeAgust.take6.output/eabaf6c9-f9bc-4a7f-abbf-1ed5d0946848.als.out
Reading from standard input... Use '--help' for help.
============================[ Problem Statistics ]=============================
|                                                                             |
|  Number of variables:         69608                                         |
|  Number of clauses:          118081                                         |
|  Parse time:                   0.03 s                                       |
|                                                                             |
============================[ Search Statistics ]==============================
| Conflicts |          ORIGINAL         |          LEARNT          | Progress |
|           |    Vars  Clauses Literals |    Limit  Clauses Lit/Cl |          |
===============================================================================
===============================================================================
restarts              : 1
conflicts             : 2              (57 /sec)
decisions             : 654            (0.00 % random) (18579 /sec)
propagations          : 20514          (582768 /sec)
conflict literals     : 1              (0.00 % deleted)
Memory used           : 16.69 MB
CPU time              : 0.035201 s

UNSATISFIABLE
